Route #1: 176 58 155 68 172 28 67 86 42 124 26 60
Route #2: 38 41 43 108 181 170 175 53 154 164 121 22
Route #3: 72 88 59 87 145 136 95 168 162 5 111 107 2
Route #4: 30 93 182 183 9 77 16 19 35 135 71 184 129
Route #5: 12 99 84 27 151 122 139 102 97 82 128 74
Route #6: 180 11 94 54 112 20 66 98 89 39 91 45
Route #7: 29 150 106 81 75 78 100 52 134 83 51
Route #8: 142 156 79 161 149 110 3 61 36 118 115
Route #9: 31 103 113 17 80 157 114 178 174 96 101 18 116
Route #10: 130 185 131 10 6 133 25 160 62 56 167 141 127
Route #11: 37 40 15 163 144 1 32 23 105 109 90 7 125
Route #12: 159 69 152 166 153 117 64 177 104 33 119 8
Route #13: 132 34 148 63 70 179 48 21 138 44 92 50 65
Route #14: 165 55 147 169 146 76 57 46 137 120 123 47 143 158
Route #15: 13 171 85 24 4 140 126 173 49 73 14
Cost 26636
